3 3 2
30 2 18 1 62 2 39 0 36 1 170 2 155 1 116 0 129 2 171 0 144 2 77 1 193 0 156 2 40 1 0 0 181 2 52 1 81 2 23 1 8 0 147 2 45 1 51 0 133 2 86 1 56 0 3 1 180 2 183 1 35 
30 0 150 1 182 0 172 2 37 0 129 2 113 1 29 0 48 2 68 0 115 2 15 0 122 2 19 0 11 2 31 1 121 0 50 1 28 2 83 1 23 0 89 2 96 0 139 1 178 0 142 1 131 0 17 2 67 1 101 2 169 
30 0 71 1 26 2 139 1 52 2 65 1 93 0 85 1 144 2 142 0 73 1 78 0 175 1 14 2 127 0 127 2 121 0 157 2 133 0 182 1 177 2 60 1 168 0 82 2 143 0 111 1 73 0 3 1 137 0 100 2 156 

-------------
